(declare-const X String)
; nick_name=CIA-Test\s+User-Agent\x3A\s+Downloadfowclxccdxn\x2fuxwn\.ddywww\x2Eeasymessage\x2Enet
(assert (not (str.in_re X (re.++ (str.to_re "nick_name=CIA-Test") (re.+ (re.union (str.to_re " ") (str.to_re "\u{9}") (str.to_re "\u{a}") (str.to_re "\u{c}") (str.to_re "\u{d}"))) (str.to_re "User-Agent:") (re.+ (re.union (str.to_re " ") (str.to_re "\u{9}") (str.to_re "\u{a}") (str.to_re "\u{c}") (str.to_re "\u{d}"))) (str.to_re "Downloadfowclxccdxn/uxwn.ddywww.easymessage.net\u{a}")))))
; /\x2eair([\?\x5c\x2f]|$)/smiU
(assert (not (str.in_re X (re.++ (str.to_re "/.air") (re.union (str.to_re "?") (str.to_re "\u{5c}") (str.to_re "/")) (str.to_re "/smiU\u{a}")))))
; /filename=[^\n]*\x2eqt/i
(assert (str.in_re X (re.++ (str.to_re "/filename=") (re.* (re.comp (str.to_re "\u{a}"))) (str.to_re ".qt/i\u{a}"))))
(check-sat)
